%%
% Autogenerated by /opt/prj/battleships-ai/src/server/solver.py, instance 0 6x6 [0] #1 <t3i1e>
% Source: https://www.puzzle-battleships.com/?size=0
%%

size = 6;
hints_num = 2;
hints = [| 4, 3 | 6, 1 |];
ships_num = 6;

constr_rows = [1, 3, 1, 1, 3, 1];
constr_cols = [4, 0, 3, 0, 2, 1];

given_ships = [|
<>, <>, <>, <>, 1, |
<>, <>, <>, <>, 1, |
<>, <>, <>, <>, 1, |
<>, <>, <>, <>, 2, |
<>, <>, <>, <>, 2, |
<>, <>, <>, <>, 3  |];

